
;this file is automatically generated: Mon Feb 10 17:01:40 CST 2020

;declarations generated

(declare-fun type_1f9ce373_e797_439c_9184_e81a8570a331_Class2 ( Int) Bool)
(declare-fun oclExcludes ( Int Int) Bool)
(declare-fun Cardinality ( Int) Int)
(declare-fun type_1f9ce373_e797_439c_9184_e81a8570a331_Class29 ( Int) Bool)
(declare-fun class29_Class29BoolAttr1 ( Int) Bool)
(declare-fun oclSelect ( Int Bool) Int)
(declare-fun Enum0 ( Int) Int)
(declare-fun Enum1 ( Int) Int)
(declare-fun Enum2 ( Int) Int)
(declare-fun container_ ( Int) Int)
(declare-fun oclIncludes ( Int Int) Bool)
(declare-fun obj_a4f3eb3c_d5bd_4b32_af2f_95be9b3b1d87 ( Int) Int)
(declare-fun ObjAt ( Int Int) Int)

;formula(s) generated
(assert (! (forall ((v Int)) (=> (and ( type_1f9ce373_e797_439c_9184_e81a8570a331_Class29 v )  ( type_1f9ce373_e797_439c_9184_e81a8570a331_Class2 v ) ) (not ( class29_Class29BoolAttr1 ( obj_a4f3eb3c_d5bd_4b32_af2f_95be9b3b1d87 v )  )  ))):named l0))
(assert (exists ((o Int)) (and ( type_1f9ce373_e797_439c_9184_e81a8570a331_Class29 ( obj_a4f3eb3c_d5bd_4b32_af2f_95be9b3b1d87 o )  )  ( type_1f9ce373_e797_439c_9184_e81a8570a331_Class2 ( obj_a4f3eb3c_d5bd_4b32_af2f_95be9b3b1d87 o )  ) )))

 ;end of formula 